22
1 0 4
2 0 3
2 1 1
3 0 2
3 1 1
3 2 4
4 0 4
4 1 4
4 2 4
4 3 3
5 0 1
5 1 1
5 2 2
5 3 1
5 4 2
6 0 2
6 1 3
6 2 3
6 3 1
6 4 1
6 5 3
7 0 1
7 1 2
7 2 2
7 3 4
7 4 4
7 5 4
7 6 2
8 0 3
8 1 3
8 2 3
8 3 1
8 4 3
8 5 4
8 6 3
8 7 4
9 0 1
9 1 1
9 2 4
9 3 2
9 4 1
9 5 2
9 6 2
9 7 1
9 8 2
10 0 3
10 1 3
10 2 1
10 3 4
10 4 1
10 5 4
10 6 2
10 7 3
10 8 4
10 9 3
11 0 1
11 1 2
11 2 4
11 3 3
11 4 3
11 5 4
11 6 4
11 7 1
11 8 2
11 9 2
11 10 2
12 0 1
12 1 2
12 2 2
12 3 3
12 4 2
12 5 4
12 6 2
12 7 4
12 8 3
12 9 4
12 10 1
12 11 4
13 0 1
13 1 3
13 2 3
13 3 1
13 4 3
13 5 1
13 6 3
13 7 1
13 8 3
13 9 4
13 10 1
13 11 1
13 12 2
14 0 1
14 1 2
14 2 3
14 3 1
14 4 4
14 5 2
14 6 1
14 7 4
14 8 3
14 9 3
14 10 1
14 11 1
14 12 1
14 13 4
15 0 4
15 1 1
15 2 1
15 3 1
15 4 2
15 5 3
15 6 3
15 7 2
15 8 4
15 9 2
15 10 2
15 11 3
15 12 2
15 13 2
15 14 1
16 0 2
16 1 2
16 2 4
16 3 3
16 4 2
16 5 1
16 6 4
16 7 4
16 8 3
16 9 3
16 10 1
16 11 4
16 12 1
16 13 4
16 14 4
16 15 2
17 0 4
17 1 3
17 2 2
17 3 4
17 4 2
17 5 3
17 6 2
17 7 2
17 8 4
17 9 2
17 10 3
17 11 1
17 12 3
17 13 4
17 14 2
17 15 1
17 16 1
18 0 1
18 1 3
18 2 2
18 3 4
18 4 4
18 5 3
18 6 3
18 7 2
18 8 4
18 9 1
18 10 4
18 11 4
18 12 2
18 13 1
18 14 3
18 15 2
18 16 1
18 17 4
19 0 2
19 1 1
19 2 1
19 3 1
19 4 2
19 5 4
19 6 3
19 7 3
19 8 2
19 9 2
19 10 1
19 11 2
19 12 3
19 13 4
19 14 3
19 15 1
19 16 3
19 17 2
19 18 4
20 0 2
20 1 2
20 2 2
20 3 3
20 4 1
20 5 4
20 6 2
20 7 1
20 8 4
20 9 2
20 10 4
20 11 1
20 12 3
20 13 1
20 14 1
20 15 4
20 16 2
20 17 4
20 18 3
20 19 1
21 0 3
21 1 4
21 2 2
21 3 4
21 4 3
21 5 1
21 6 4
21 7 2
21 8 1
21 9 1
21 10 4
21 11 2
21 12 3
21 13 4
21 14 4
21 15 4
21 16 2
21 17 2
21 18 2
21 19 3
21 20 4
